c Generated map
c Size: 10 * 10, weights in range: 1 to 10, walls: False, with ratio 0.0
c dim 5 of 7
c
p sp 100 180
c graph contains 100 nodes and 180 arcs
c
a 1 11 7
a 11 1 7
a 1 2 4
a 2 1 4
a 2 12 7
a 12 2 7
a 2 3 10
a 3 2 10
a 3 13 5
a 13 3 5
a 3 4 1
a 4 3 1
a 4 14 2
a 14 4 2
a 4 5 3
a 5 4 3
a 5 15 4
a 15 5 4
a 5 6 10
a 6 5 10
a 6 16 9
a 16 6 9
a 6 7 5
a 7 6 5
a 7 17 1
a 17 7 1
a 7 8 5
a 8 7 5
a 8 18 8
a 18 8 8
a 8 9 1
a 9 8 1
a 9 19 4
a 19 9 4
a 9 10 4
a 10 9 4
a 10 20 8
a 20 10 8
a 11 21 1
a 21 11 1
a 11 12 2
a 12 11 2
a 12 22 10
a 22 12 10
a 12 13 1
a 13 12 1
a 13 23 10
a 23 13 10
a 13 14 4
a 14 13 4
a 14 24 5
a 24 14 5
a 14 15 1
a 15 14 1
a 15 25 7
a 25 15 7
a 15 16 3
a 16 15 3
a 16 26 3
a 26 16 3
a 16 17 4
a 17 16 4
a 17 27 3
a 27 17 3
a 17 18 10
a 18 17 10
a 18 28 2
a 28 18 2
a 18 19 3
a 19 18 3
a 19 29 5
a 29 19 5
a 19 20 5
a 20 19 5
a 20 30 3
a 30 20 3
a 21 31 7
a 31 21 7
a 21 22 1
a 22 21 1
a 22 32 10
a 32 22 10
a 22 23 2
a 23 22 2
a 23 33 10
a 33 23 10
a 23 24 1
a 24 23 1
a 24 34 8
a 34 24 8
a 24 25 2
a 25 24 2
a 25 35 8
a 35 25 8
a 25 26 1
a 26 25 1
a 26 36 10
a 36 26 10
a 26 27 10
a 27 26 10
a 27 37 2
a 37 27 2
a 27 28 9
a 28 27 9
a 28 38 10
a 38 28 10
a 28 29 7
a 29 28 7
a 29 39 1
a 39 29 1
a 29 30 10
a 30 29 10
a 30 40 10
a 40 30 10
a 31 41 7
a 41 31 7
a 31 32 2
a 32 31 2
a 32 42 3
a 42 32 3
a 32 33 5
a 33 32 5
a 33 43 1
a 43 33 1
a 33 34 4
a 34 33 4
a 34 44 5
a 44 34 5
a 34 35 6
a 35 34 6
a 35 45 5
a 45 35 5
a 35 36 2
a 36 35 2
a 36 46 9
a 46 36 9
a 36 37 8
a 37 36 8
a 37 47 8
a 47 37 8
a 37 38 4
a 38 37 4
a 38 48 7
a 48 38 7
a 38 39 9
a 39 38 9
a 39 49 5
a 49 39 5
a 39 40 6
a 40 39 6
a 40 50 10
a 50 40 10
a 41 51 5
a 51 41 5
a 41 42 9
a 42 41 9
a 42 52 7
a 52 42 7
a 42 43 10
a 43 42 10
a 43 53 8
a 53 43 8
a 43 44 8
a 44 43 8
a 44 54 8
a 54 44 8
a 44 45 3
a 45 44 3
a 45 55 5
a 55 45 5
a 45 46 8
a 46 45 8
a 46 56 8
a 56 46 8
a 46 47 3
a 47 46 3
a 47 57 9
a 57 47 9
a 47 48 8
a 48 47 8
a 48 58 1
a 58 48 1
a 48 49 8
a 49 48 8
a 49 59 3
a 59 49 3
a 49 50 9
a 50 49 9
a 50 60 10
a 60 50 10
a 51 61 9
a 61 51 9
a 51 52 5
a 52 51 5
a 52 62 3
a 62 52 3
a 52 53 3
a 53 52 3
a 53 63 10
a 63 53 10
a 53 54 7
a 54 53 7
a 54 64 3
a 64 54 3
a 54 55 6
a 55 54 6
a 55 65 10
a 65 55 10
a 55 56 10
a 56 55 10
a 56 66 5
a 66 56 5
a 56 57 10
a 57 56 10
a 57 67 6
a 67 57 6
a 57 58 5
a 58 57 5
a 58 68 4
a 68 58 4
a 58 59 4
a 59 58 4
a 59 69 8
a 69 59 8
a 59 60 7
a 60 59 7
a 60 70 5
a 70 60 5
a 61 71 7
a 71 61 7
a 61 62 4
a 62 61 4
a 62 72 9
a 72 62 9
a 62 63 9
a 63 62 9
a 63 73 10
a 73 63 10
a 63 64 2
a 64 63 2
a 64 74 2
a 74 64 2
a 64 65 10
a 65 64 10
a 65 75 4
a 75 65 4
a 65 66 3
a 66 65 3
a 66 76 9
a 76 66 9
a 66 67 9
a 67 66 9
a 67 77 9
a 77 67 9
a 67 68 1
a 68 67 1
a 68 78 5
a 78 68 5
a 68 69 5
a 69 68 5
a 69 79 1
a 79 69 1
a 69 70 8
a 70 69 8
a 70 80 9
a 80 70 9
a 71 81 1
a 81 71 1
a 71 72 8
a 72 71 8
a 72 82 2
a 82 72 2
a 72 73 9
a 73 72 9
a 73 83 8
a 83 73 8
a 73 74 5
a 74 73 5
a 74 84 6
a 84 74 6
a 74 75 4
a 75 74 4
a 75 85 5
a 85 75 5
a 75 76 8
a 76 75 8
a 76 86 7
a 86 76 7
a 76 77 5
a 77 76 5
a 77 87 5
a 87 77 5
a 77 78 4
a 78 77 4
a 78 88 4
a 88 78 4
a 78 79 4
a 79 78 4
a 79 89 2
a 89 79 2
a 79 80 9
a 80 79 9
a 80 90 2
a 90 80 2
a 81 91 1
a 91 81 1
a 81 82 10
a 82 81 10
a 82 92 6
a 92 82 6
a 82 83 5
a 83 82 5
a 83 93 3
a 93 83 3
a 83 84 2
a 84 83 2
a 84 94 10
a 94 84 10
a 84 85 9
a 85 84 9
a 85 95 6
a 95 85 6
a 85 86 5
a 86 85 5
a 86 96 7
a 96 86 7
a 86 87 6
a 87 86 6
a 87 97 1
a 97 87 1
a 87 88 4
a 88 87 4
a 88 98 4
a 98 88 4
a 88 89 3
a 89 88 3
a 89 99 3
a 99 89 3
a 89 90 3
a 90 89 3
a 90 100 5
a 100 90 5
a 91 92 2
a 92 91 2
a 92 93 3
a 93 92 3
a 93 94 10
a 94 93 10
a 94 95 8
a 95 94 8
a 95 96 2
a 96 95 2
a 96 97 8
a 97 96 8
a 97 98 9
a 98 97 9
a 98 99 9
a 99 98 9
a 99 100 2
a 100 99 2
